%%% static parameters %%%
timespan = 1;
Fact = [2];
Distr1 = [5];
Distr2 = [10];
Clients_N = [100];
Demand_W = [15];
Lt0 = [4];
Lt1 = [4];
SS_ = [0.85];
DS_D = [8];
K = [200];
MA = [500];
%%% dynamic parameters %%%
lost_ratio_sales_ret_th = 0.5527609345015521;
lost_ratio_sales_ret_w = 10;
lost_ratio_sales_dis_th = 0.5095713690592891;
lost_ratio_sales_dis_w = 89;
lost_ratio_sales_fac_th = 0.46053606819288806;
lost_ratio_sales_fac_w = 76;
stock_customer_MA_mean_relative_th = 0.28763548892656776;
stock_customer_MA_mean_relative_w = 36;
stock_distributor_MA_mean_relative_th = 0.7602669757386188;
stock_distributor_MA_mean_relative_w = 75;
stock_retailer_MA_mean_relative_th = 0.07096564865308908;
stock_retailer_MA_mean_relative_w = 4;
stock_factory_MA_mean_relative_th = 0.8519899692596596;
stock_factory_MA_mean_relative_w = 75;
